100 98810

 920 467
693 434
235 879
952 66
831 910
337 565
8 928
443 106
941 96
539 988
820 688
658 551
91 168
854 42
272 879
834 104
5 845
594 204
899 520
219 975
118 282
593 908
976 43
582 947
115 110
263 987
306 210
654 749
422 868
207 831
623 49
303 115
112 155
417 649
555 503
859 679
285 833
640 711
185 986
741 71
901 519
221 712
864 336
444 67
117 493
70 650
898 754
70 967
622 213
427 181
644 766
568 613
989 863
443 599
601 697
137 603
504 248
131 214
218 359
688 249
171 638
475 923
612 950
992 881
129 516
57 88
181 663
246 176
144 723
51 426
368 771
459 603
218 771
616 924
895 703
567 81
257 927
858 138
156 433
565 470
442 350
841 126
956 881
699 917
876 868
662 309
776 855
762 230
945 460
810 345
923 310
935 953
723 20
25 881
806 561
853 647
664 541
536 560
764 477
60 269
